RT is False
Default write of storage_offers_DA.csv just to have a file (but constraint should be inactive)
Reading model...
...model read.
creating competitive generators file...
...competitive generators recorded.
Loading data...
.. day-ahead data with real-time VRE data read.
Compiling instance...
...instance created.
Creating Offer Mitigation (model will solve as dispatch if TRUE)...
NOTE: storage offers will not be mitigated
...storage offer mitigation file created
Converting model to MPEC...
...converted
NOTE: initial MIP solve with only storage competitive to get feasible solution
Solving...

Welcome to IBM(R) ILOG(R) CPLEX(R) Interactive Optimizer 12.9.0.0
  with Simplex, Mixed Integer & Barrier Optimizers
5725-A06 5725-A29 5724-Y48 5724-Y49 5724-Y54 5724-Y55 5655-Y21
Copyright IBM Corp. 1988, 2019.  All Rights Reserved.

Type 'help' for a list of available commands.
Type 'help' followed by a command name for more
information on commands.

CPLEX> Logfile 'cplex.log' closed.
Logfile 'C:\Users\llavin\Desktop\test826\logs\tmpr3nrosk4.cplex.log' open.
CPLEX> New value for parallel optimization mode: -1
CPLEX> New value for emphasis for MIP optimization: 1
CPLEX> New value for mixed integer optimality gap tolerance: 0.01
CPLEX> New value for integrality tolerance: 1e-12
CPLEX> New value for deterministic time limit in ticks: 75000
CPLEX> Problem 'C:\Users\llavin\Desktop\test826\logs\tmpzox4ip_q.pyomo.lp' read.
Read time = 0.23 sec. (13.92 ticks)
CPLEX> Problem name         : C:\Users\llavin\Desktop\test826\logs\tmpzox4ip_q.pyomo.lp
Objective sense      : Maximize
Variables            :   53809  [Nneg: 1,  Box: 22004,  Free: 4464,
                                 Binary: 27340]
Objective nonzeros   :    9029
Linear constraints   :  123253  [Less: 41346,  Greater: 59096,  Equal: 22811]
  Nonzeros           :  293217
  RHS nonzeros       :   67491

Variables            : Min LB: -5000.000        Max UB: 1000000.       
Objective nonzeros   : Min   : 0.4083333        Max   : 2500.000       
Linear constraints   :
  Nonzeros           : Min   : 0.4083333        Max   : 1000000.       
  RHS nonzeros       : Min   : 0.4083333        Max   : 1000000.       
CPLEX> CPXPARAM_Parallel                                -1
CPXPARAM_Emphasis_MIP                            1
CPXPARAM_DetTimeLimit                            75000
CPXPARAM_MIP_Tolerances_MIPGap                   0.01
CPXPARAM_MIP_Tolerances_Integrality              9.9999999999999998e-13
Tried aggregator 4 times.
MIP Presolve eliminated 88640 rows and 18943 columns.
MIP Presolve added 3381 rows and 0 columns.
MIP Presolve modified 24827 coefficients.
Aggregator did 13000 substitutions.
Reduced MIP has 24994 rows, 21310 columns, and 71912 nonzeros.
Reduced MIP has 8429 binaries, 0 generals, 0 SOSs, and 0 indicators.
Presolve time = 0.33 sec. (192.46 ticks)
Probing fixed 411 vars, tightened 4152 bounds.
Probing time = 0.08 sec. (19.31 ticks)
Tried aggregator 2 times.
MIP Presolve eliminated 927 rows and 825 columns.
MIP Presolve modified 3035 coefficients.
Aggregator did 35 substitutions.
Reduced MIP has 24032 rows, 20450 columns, and 69118 nonzeros.
Reduced MIP has 8017 binaries, 0 generals, 0 SOSs, and 0 indicators.
Presolve time = 0.11 sec. (89.66 ticks)
Probing fixed 5 vars, tightened 249 bounds.
Probing time = 0.16 sec. (23.98 ticks)
Clique table members: 44625.
MIP emphasis: integer feasibility.
MIP search method: dynamic search.
Parallel mode: opportunistic, using up to 32 threads.
Root relaxation solution time = 0.41 sec. (592.91 ticks)

        Nodes                                         Cuts/
   Node  Left     Objective  IInf  Best Integer    Best Bound    ItCnt     Gap

      0     0     3213.2560    98                   3213.2560     5073         
*     0+    0                         3205.7471     3213.2560             0.23%

Root node processing (before b&c):
  Real time             =    1.69 sec. (1310.87 ticks)
Parallel b&c, 32 threads:
  Real time             =    0.00 sec. (0.00 ticks)
  Sync time (average)   =    0.00 sec.
  Wait time (average)   =    0.00 sec.
                          ------------
Total (root+branch&cut) =    1.69 sec. (1310.87 ticks)

Solution pool: 1 solution saved.

MIP - Integer optimal, tolerance (0.01/1e-06):  Objective =  3.2057470890e+03
Current MIP best bound =  3.2132559618e+03 (gap = 7.50887, 0.23%)
Solution time =    1.72 sec.  Iterations = 5073  Nodes = 0 (1)
Deterministic time = 1311.02 ticks  (762.66 ticks/sec)

CPLEX> Incumbent solution written to file 'C:\Users\llavin\Desktop\test826\logs\tmp2tujba9w.cplex.sol'.
CPLEX> NOTE: no warmstart specified for MIP iteration, default behavior is true
NOTE: resolving with all competitive generators using storage-only solution to warmstart
Solving...

Welcome to IBM(R) ILOG(R) CPLEX(R) Interactive Optimizer 12.9.0.0
  with Simplex, Mixed Integer & Barrier Optimizers
5725-A06 5725-A29 5724-Y48 5724-Y49 5724-Y54 5724-Y55 5655-Y21
Copyright IBM Corp. 1988, 2019.  All Rights Reserved.

Type 'help' for a list of available commands.
Type 'help' followed by a command name for more
information on commands.

CPLEX> Logfile 'cplex.log' closed.
Logfile 'C:\Users\llavin\Desktop\test826\logs\tmpdkx5kd4a.cplex.log' open.
CPLEX> New value for parallel optimization mode: -1
CPLEX> New value for emphasis for MIP optimization: 1
CPLEX> New value for mixed integer optimality gap tolerance: 0.01
CPLEX> New value for integrality tolerance: 1e-12
CPLEX> New value for deterministic time limit in ticks: 75000
CPLEX> Problem 'C:\Users\llavin\Desktop\test826\logs\tmpudgbn3f7.pyomo.lp' read.
Read time = 0.23 sec. (13.94 ticks)
CPLEX> MIP start file 'C:\Users\llavin\Desktop\test826\logs\tmpj67sarg5.cplex.mst' read.
CPLEX> Problem name         : C:\Users\llavin\Desktop\test826\logs\tmpudgbn3f7.pyomo.lp
Objective sense      : Maximize
Variables            :   54529  [Nneg: 1,  Box: 22724,  Free: 4464,
                                 Binary: 27340]
Objective nonzeros   :    9725
Linear constraints   :  123253  [Less: 41346,  Greater: 59096,  Equal: 22811]
  Nonzeros           :  293217
  RHS nonzeros       :   67491

Variables            : Min LB: -5000.000        Max UB: 1000000.       
Objective nonzeros   : Min   : 0.4083333        Max   : 2500.000       
Linear constraints   :
  Nonzeros           : Min   : 0.4083333        Max   : 1000000.       
  RHS nonzeros       : Min   : 0.4083333        Max   : 1000000.       
CPLEX> CPXPARAM_Parallel                                -1
CPXPARAM_Emphasis_MIP                            1
CPXPARAM_DetTimeLimit                            75000
CPXPARAM_MIP_Tolerances_MIPGap                   0.01
CPXPARAM_MIP_Tolerances_Integrality              9.9999999999999998e-13
Warning:  No solution found from 1 MIP starts.
Retaining values of one MIP start for possible repair.
Tried aggregator 4 times.
MIP Presolve eliminated 88640 rows and 19663 columns.
MIP Presolve added 3381 rows and 0 columns.
MIP Presolve modified 24827 coefficients.
Aggregator did 13000 substitutions.
Reduced MIP has 24994 rows, 21310 columns, and 71912 nonzeros.
Reduced MIP has 8429 binaries, 0 generals, 0 SOSs, and 0 indicators.
Presolve time = 0.33 sec. (192.87 ticks)
Probing fixed 411 vars, tightened 4152 bounds.
Probing time = 0.06 sec. (19.31 ticks)
Tried aggregator 2 times.
MIP Presolve eliminated 927 rows and 825 columns.
MIP Presolve modified 3035 coefficients.
Aggregator did 35 substitutions.
Reduced MIP has 24032 rows, 20450 columns, and 69118 nonzeros.
Reduced MIP has 8017 binaries, 0 generals, 0 SOSs, and 0 indicators.
Presolve time = 0.11 sec. (89.66 ticks)
Probing fixed 5 vars, tightened 249 bounds.
Probing time = 0.16 sec. (23.98 ticks)
Clique table members: 44625.
MIP emphasis: integer feasibility.
MIP search method: dynamic search.
Parallel mode: opportunistic, using up to 32 threads.
Root relaxation solution time = 0.48 sec. (642.16 ticks)

        Nodes                                         Cuts/
   Node  Left     Objective  IInf  Best Integer    Best Bound    ItCnt     Gap

      0     0   106622.3650   236                 106622.3650     6045         
      0     0   105527.1575   129                   Cuts: 151     6188         
      0     0   105173.2598   126                    Cuts: 50     6256         
      0     0   104960.8150   115                    Cuts: 40     6314         
Repair heuristic found nothing.
      0     8    97681.5600    98                    Cuts: 15     6380         
Elapsed time = 4.30 sec. (1882.20 ticks, tree = 0.02 MB, solutions = 0)
    616   298    89269.7276    93                 103478.2926    10183         
   1037   885    52236.9571   102                 103478.2926    21813         
   1659  1332     2527.9267    48                 103478.2926    31875         
   2245  1565    infeasible                       103478.2926    36221         
   2875  1918  -256029.1480    44                 103478.2926    45234         
   3534  2521    49517.3286    63                 103478.2926    62207         
   4155  2710   -32442.1638    65                 103478.2926    69460         
   4798  3390    52661.8082    55                 103478.2926    86768         
   5397  3659    81926.9257    66                 103478.2926    93916         
   7767  5367    73948.7353    50                 103478.2926   142953         
Elapsed time = 21.63 sec. (4985.44 ticks, tree = 91.52 MB, solutions = 0)
   8487  6467    65426.8863    85                  93472.0498   186931         
  10788  1329     8993.5567    77                  90812.6829   217603         
  13471  3448    52187.6771    86                  90812.6829   291454         
  15803  4728    infeasible                        90812.6829   363830         
  18330  5861  -394143.2600   112                  90812.6829   425364         
  20298  7495    56378.3258    70                  90812.6829   506675         
  22738  8904    41941.2709    76                  90812.6829   583705         
  25103 10591   -42766.2499    90                  90398.8636   671795         
  27447 12448   -38458.9983    62                  90398.8636   786132         
  29868 12825    40057.2468    52                  90398.8636   809641         
Elapsed time = 80.91 sec. (16291.72 ticks, tree = 137.30 MB, solutions = 0)
  32241 15864    24058.3909    80                  90398.8636   988365         
  34650 15990    46214.5515    41                  90398.8636   994818         
  36873 17996  -220885.8606   106                  90398.8636  1117849         
  39061 18775    infeasible                        90398.8636  1167148         
  41521 20418  -397832.6960    94                  90398.8636  1261077         
  43946 20983   -11298.2223    33                  90398.8636  1295647         
  46489 22815    28224.4115    67                  90398.8636  1407358         
  49185 23546    35481.5728    33                  90398.8636  1454238         
  51703 24623    infeasible                        90398.8636  1535000         
  53601 27677    infeasible                        90398.8636  1754302         
Elapsed time = 152.77 sec. (25832.25 ticks, tree = 344.92 MB, solutions = 0)
  55336 27429    infeasible                        90398.8636  1729517         
  57652 29631    26757.1550    61                  90398.8636  1904527         
  59971 30048    10847.9022    45                  90398.8636  1938979         
  62378 30854    infeasible                        90398.8636  1993225         
  64973 31484    51157.6654    32                  90398.8636  2033595         
  67594 32560   -28295.0348    52                  90398.8636  2097844         
  70099 34291    11400.8251    49                  90398.8636  2205164         
  72408 36673    41615.0853    34                  90398.8636  2351232         
  74712 37222    18402.6816    52                  90398.8636  2398783         
  76984 38361    13584.4899    52                  90398.8636  2476948         
Elapsed time = 193.92 sec. (35373.50 ticks, tree = 422.25 MB, solutions = 0)
  79326 42773  -318942.2045    61                  90398.8636  2784202         
  81727 42895    16705.2388    60                  90398.8636  2801233         
  83989 45476  -458138.2027    81                  90398.8636  2985634         
  86099 44238    infeasible                        90398.8636  2902651         
  88257 46921    11692.0753    33                  90398.8636  3099816         
  90520 48949    -6449.2150    59                  90398.8636  3262356         
  92900 47924    41136.4533    61                  90398.8636  3186379         
  95055 48789   -66878.2538   120                  90398.8636  3250969         
  97015 50215    32367.4418    52                  90398.8636  3358221         
  97673 50624    45691.9429    33                  90398.8636  3401551         
Elapsed time = 199.92 sec. (44912.43 ticks, tree = 512.23 MB, solutions = 0)
  97679 53761    infeasible                        90398.8636  3642899         
  99088   436    63391.6618    66                  90398.8636  3658234         
 100103  1508    75849.4724    69                  90398.8636  3693398         
 101623  1948    66186.9927   114                  90398.8636  3717148         
 103704  3045    60037.5880    98                  90398.8636  3772638         
 104708  4022    71449.6660    75                  90398.8636  3825474         
 105769  4699    19026.1554    98                  90398.8636  3869997         
 107013  5337    28154.2198    33                  90398.8636  3908222         
 109280  5867  -203578.8691    69                  90398.8636  3936533         
 111364  8334    36163.5740    21                  90398.8636  4040698         
Elapsed time = 235.39 sec. (56111.42 ticks, tree = 93.66 MB, solutions = 0)
 112531  8642    48950.0700    48                  90398.8636  4062781         
 113728  9335    38547.4231    40                  90398.8636  4105217         
 114991  9777    53590.4320    72                  90398.8636  4135308         
 116297 10078    58578.1917    53                  90398.8636  4159529         
 117638 10685    infeasible                        90398.8636  4205604         
 118936 11338    20167.4447    38                  90398.8636  4249994         
 120216 12138    36486.8467    51                  90398.8636  4306922         
 121544 13975   -30323.8254   134                  90398.8636  4425811         
 122805 13605    47740.5767    71                  90398.8636  4399903         
 124130 16382    35686.9790    76                  90398.8636  4549901         
Elapsed time = 267.06 sec. (65656.23 ticks, tree = 153.02 MB, solutions = 0)
 125361 15016     9614.2306    59                  90398.8636  4478474         
 126633 16824    36182.7641    48                  90398.8636  4569204         
 127878 16218    46554.9396    55                  90398.8636  4538892         
 129180 17067    infeasible                        90398.8636  4582814         
 130459 17716    20420.6930    64                  90398.8636  4608156         
 131780 18617    23551.8277    51                  90398.8636  4659445         
 133021 19071    infeasible                        90398.8636  4681349         
 134282 19752    infeasible                        90398.8636  4723895         
 135268 20397    11088.4571    64                  90398.8636  4765181         

Clique cuts applied:  1
Cover cuts applied:  42
Implied bound cuts applied:  3
Flow cuts applied:  112
Mixed integer rounding cuts applied:  10
Lift and project cuts applied:  6
Gomory fractional cuts applied:  3

Root node processing (before b&c):
  Real time             =    2.78 sec. (1841.68 ticks)
Parallel b&c, 32 threads:
  Real time             =  283.50 sec. (73170.67 ticks)
  Sync time (average)   =    2.22 sec.
  Wait time (average)   =    0.41 sec.
                          ------------
Total (root+branch&cut) =  286.28 sec. (75012.34 ticks)


MIP - Deterministic time limit exceeded, no integer solution.
Current MIP best bound =  9.0398863566e+04 (gap is infinite)
Solution time =  286.30 sec.  Iterations = 4892340  Nodes = 135711 (22394)
Deterministic time = 75012.50 ticks  (262.01 ticks/sec)

CPLEX> CPLEX Error  1217: No solution exists.
No file written.
CPLEX> gap is infinite, so writing 0
Exporting results... 
